row=8;
Board=[|10,0,2,0,0,7,5,0,1,0|9,3,5,8,10,6,0,0,4,0|0,2,6,0,0,4,3,0,1,8|8,0,10,2,0,0,0,0,4,7|0,6,5,7,0,4,0,3,10,0|0,10,9,3,8,0,0,0,1,0|0,0,0,7,10,0,3,0,8,6|0,3,0,0,0,1,7,5,0,0|];
bottom=[2721600,21600,243000,508032,1209600,151200,45360,129600,2560
,1505280]